CMD:
./solvers/bin/cadical --plain --no-reduce -t 1600 ./data/cnfs//bob9234spec5neg/bob9234spec5neg.35.cnf

c --- [ banner ] -------------------------------------------------------------
c 
c CaDiCaL SAT Solver
c Copyright (c) 2016-2024
c A. Biere, M. Fleury, N. Froleyks, K. Fazekas, F. Pollitt, T. Faller
c JKU Linz, University of Freiburg, TU Wien
c 
c Version 2.1.3 5296d3d2a9bf48c154ab2acb5e44625776d821bf
c g++ (Gentoo 12.3.1_p20230526 p2) 12.3.1 20230526 -Wall -Wextra -O3 -DNDEBUG
c Sat Aug 9 07:26:21 PDT 2025 Linux cedar2.int.cedar.computecanada.ca 5.14.0-362.24.2.el9_3.x86_64 x86_64
c 
c --- [ limit ] --------------------------------------------------------------
c 
c setting time limit to 1600 seconds real time (due to '-t 1600')
c 
c --- [ parsing input ] ------------------------------------------------------
c 
c reading DIMACS file from './data/cnfs//bob9234spec5neg/bob9234spec5neg.35.cnf'
c opening file to read './data/cnfs//bob9234spec5neg/bob9234spec5neg.35.cnf'
c found 'p cnf 24928 72039' header
c parsed 72039 clauses in 0.01 seconds process time
c 
c --- [ options ] ------------------------------------------------------------
c 
c   --compact=false                (different from default 'true')
c   --decompose=false              (different from default 'true')
c   --deduplicate=false            (different from default 'true')
c   --elim=false                   (different from default 'true')
c   --probe=false                  (different from default 'true')
c   --reduce=false                 (different from default 'true')
c   --subsume=false                (different from default 'true')
c   --ternary=false                (different from default 'true')
c   --transred=false               (different from default 'true')
c   --vivify=false                 (different from default 'true')
c 
c --- [ solving ] ------------------------------------------------------------
c 
c time measured in process time since initialization
c 
c  seconds  reductions  redundant  irredundant
c         MB    restarts       trail      variables
c          level   conflicts       glue        remaining
c 
c *  0.01 15  0 0   0    0    0  0% 0 67828 22348 90%
c {  0.02 15  0 0   0    0    0  0% 0 67828 22348 90%
c i  0.02 15 11 0   0    4    1 12% 0 67828 22238 89%
c i  0.02 15 33 0   4   60   45 15% 3 67828 22235 89%
c i  0.02 15 25 0   5   80   61 14% 3 67828 22223 89%
c i  0.02 15 14 0  18  220  180 13% 3 67828 22209 89%
c }  0.02 15 13 0  18  232  184 13% 3 67828 22136 89%
c 0  0.02 15 13 0  18  232  184 13% 3 67828 22136 89%
c 
c --- [ result ] -------------------------------------------------------------
c 
s UNSATISFIABLE
c 
c --- [ run-time profiling ] -------------------------------------------------
c 
c process time taken by individual solving procedures
c (percentage relative to process time for solving)
c 
c         0.01  101.82% parse
c         0.01   99.05% search
c         0.01   66.68% lucky
c         0.00   32.26% unstable
c         0.00    0.00% simplify
c   =================================
c         0.01   48.63% solve
c 
c last line shows process time for solving
c (percentage relative to total process time)
c 
c --- [ statistics ] ---------------------------------------------------------
c 
c chronological:                72        31.03 %  of conflicts
c conflicts:                   232     19781.72    per second
c decisions:                   538     45873.12    per second
c fixed:                      2775        11.13 %  of all variables
c learned:                     222        95.69 %  per conflict
c learned_lits:               2674       100.00 %  learned literals
c minimized:                     0         0.00 %  learned literals
c shrunken:                    947        35.42 %  learned literals
c minishrunken:                370        13.84 %  learned literals
c otfs:                          3         1.29 %  of conflict
c propagations:              51494         4.39 M  per second
c restarts:                     18        12.89    interval
c subsumed:                     33         0.05 %  of all clauses
c strengthened:                  3         0.00 %  of all clauses
c 
c seconds are measured in process time for solving
c 
c --- [ resources ] ----------------------------------------------------------
c 
c total process time since initialization:         0.02    seconds
c total real time since initialization:            0.03    seconds
c maximum resident set size of process:           30.70    MB
c 
c --- [ shutting down ] ------------------------------------------------------
c 
c exit 20
